36
50
40	12
39	9
38	15
37	9
36	14
35	14
34	5
33	9
32	16
31	9
30	12
29	11
28	10
27	13
26	16
25	10
24	7
23	7
22	9
21	10
20	13
19	14
18	13
17	14
16	11
15	10
14	10
13	13
12	12
11	9
10	9
9	9
8	11
7	16
6	12
5	7
